NAME: test1686
TYPE: TSP
DIMENSION: 11
EDGE_WEIGHT_TYPE: EUC_2D
NODE_COORD_SECTION
1 56.24475458759268 64.10776614099024
2 37.23378501771394 40.340557226231034
3 15.460991184719797 9.493766925540093
4 10.43570484974926 41.82331579033659
5 1.6268025193041935 24.549253269042037
6 51.47489714256398 55.54363013781425
7 54.661027312942714 16.89547512788929
8 55.11345172856371 80.51090546833456
9 16.44081101629983 49.21614504621134
10 66.83556054298322 82.20339552517564
11 22.069808239278654 1.2679652927374274
EOF
